p wcnf 199 100 101 
1 29 -188 0 
1 -16 -175 0 
1 -27 74 0 
1 -73 118 0 
1 94 178 0 
1 131 -196 0 
1 29 -88 0 
1 -119 -134 0 
1 -125 -129 0 
1 149 -60 0 
1 -18 137 0 
1 118 -178 0 
1 86 111 0 
1 -155 -69 0 
1 63 -13 0 
1 13 -142 0 
1 148 159 0 
1 -33 109 0 
1 -165 16 0 
1 59 -198 0 
1 172 53 0 
1 129 -96 0 
1 -52 176 0 
1 -17 43 0 
1 -10 -58 0 
1 125 178 0 
1 -124 -165 0 
1 168 -31 0 
1 109 117 0 
1 -56 -55 0 
1 187 158 0 
1 132 64 0 
1 -194 -68 0 
1 -115 138 0 
1 -64 18 0 
1 -146 109 0 
1 -116 127 0 
1 55 30 0 
1 -107 188 0 
1 -33 -49 0 
1 8 -143 0 
1 -144 -146 0 
1 -117 -25 0 
1 -14 -87 0 
1 64 15 0 
1 150 -142 0 
1 -53 -19 0 
1 90 76 0 
1 25 155 0 
1 45 63 0 
1 -39 147 0 
1 99 48 0 
1 -100 181 0 
1 3 -13 0 
1 -10 145 0 
1 -20 147 0 
1 53 106 0 
1 110 121 0 
1 73 122 0 
1 4 87 0 
1 78 -72 0 
1 158 96 0 
1 -125 -38 0 
1 35 -166 0 
1 15 -72 0 
1 -138 -79 0 
1 -64 85 0 
1 -182 117 0 
1 38 -36 0 
1 146 -123 0 
1 -9 169 0 
1 34 -114 0 
1 134 146 0 
1 -65 93 0 
1 69 3 0 
1 -96 5 0 
1 6 -31 0 
1 -181 -190 0 
1 133 37 0 
1 -176 62 0 
1 122 -174 0 
1 39 -63 0 
1 34 190 0 
1 171 147 0 
1 184 81 0 
1 34 164 0 
1 101 -93 0 
1 53 162 0 
1 -43 26 0 
1 68 179 0 
1 -192 170 0 
1 124 -61 0 
1 -63 -68 0 
1 175 -38 0 
1 -141 -25 0 
1 104 -107 0 
1 192 -7 0 
1 163 -159 0 
1 -185 -27 0 
1 -104 -149 0 
